Total weight: 1202.4371349852681
Route 1: 0 53 6 89 0 
Route 2: 0 26 12 50 33 79 3 68 80 0 
Route 3: 0 97 92 37 98 91 44 85 100 0 
Route 4: 0 2 57 15 43 42 87 13 0 
Route 5: 0 82 7 88 31 71 35 9 77 76 0 
Route 6: 0 95 59 84 45 8 83 60 18 0 
Route 7: 0 56 23 22 41 74 40 58 0 
Route 8: 0 14 38 86 16 61 5 96 94 0 
Route 9: 0 21 73 72 75 39 67 25 55 0 
Route 10: 0 48 36 49 64 63 90 10 0 
Route 11: 0 1 51 81 78 34 29 24 54 4 0 
Route 12: 0 52 62 11 19 47 46 17 93 99 0 
Route 13: 0 28 27 69 30 20 65 66 32 70 0 
